
Gurobi 9.5.0 (linux64) logging started Wed Nov 15 11:39:01 2023

Set parameter LogFile to value "/lustre1/scratch/348/vsc34888/JointResearch/05.Models/06.Benchmarking/D.Representative_days_based_on_RES_and_Demand/RTS24_mod1_ByStages/openStarNet_RTS24_mod1_ByStages.log"
Set parameter Method to value 2
Set parameter MIPFocus to value 1
Set parameter Presolve to value 2
Set parameter RINS to value 100
Set parameter MIPGap to value 0.01
Set parameter Threads to value 36
Set parameter TimeLimit to value 604800
Set parameter IterationLimit to value 760000000
Gurobi Optimizer version 9.5.0 build v9.5.0rc5 (linux64)
Thread count: 36 physical cores, 36 logical processors, using up to 36 threads
Optimize a model with 75244 rows, 47787 columns and 186680 nonzeros
Model fingerprint: 0x348c5e71
Variable types: 47771 continuous, 16 integer (16 binary)
Coefficient statistics:
  Matrix range     [1e-03, 3e+04]
  Objective range  [1e+00, 1e+00]
  Bounds range     [4e-05, 3e+00]
  RHS range        [4e-05, 3e+00]
Presolve removed 49442 rows and 24215 columns
Presolve time: 0.18s
Presolved: 25802 rows, 23572 columns, 90948 nonzeros
Variable types: 23556 continuous, 16 integer (16 binary)
Root relaxation presolved: 25802 rows, 23572 columns, 90948 nonzeros

Root barrier log...

Ordering time: 0.01s

Barrier statistics:
 Dense cols : 16
 AA' NZ     : 1.443e+05
 Factor NZ  : 4.783e+05 (roughly 24 MB of memory)
 Factor Ops : 9.984e+06 (less than 1 second per iteration)
 Threads    : 35

                  Objective                Residual
Iter       Primal          Dual         Primal    Dual     Compl     Time
   0   8.43178376e+05 -1.33720747e+08  6.92e+00 8.33e+01  5.37e+03     0s
   1   9.21393665e+04 -3.03280944e+07  5.66e-01 1.86e-08  6.48e+02     0s
   2   4.62316750e+04 -4.22442635e+06  1.53e-01 7.01e-09  8.23e+01     0s
   3   2.57625397e+04 -4.72790253e+05  7.03e-03 7.93e-10  8.13e+00     0s
   4   1.02350832e+04 -1.14692802e+05  4.35e-04 1.69e-10  2.01e+00     0s
   5   4.20653594e+03 -3.18362122e+04  1.45e-04 4.43e-11  5.79e-01     0s
   6   1.65151332e+03 -7.63132812e+03  4.59e-05 1.02e-11  1.49e-01     0s
   7   6.23011973e+02 -2.62258005e+03  9.72e-06 3.45e-12  5.21e-02     0s
   8   4.01070040e+02 -7.44972347e+02  4.68e-06 1.10e-12  1.84e-02     0s
   9   2.84384067e+02 -3.01782180e+02  2.62e-06 9.09e-13  9.41e-03     0s
  10   2.14136438e+02 -9.46379319e+01  1.53e-06 1.82e-12  4.96e-03     0s
  11   1.64933223e+02  2.99730266e+00  8.23e-07 9.09e-13  2.60e-03     0s
  12   1.35547348e+02  5.97887810e+01  4.21e-07 9.09e-13  1.22e-03     0s
  13   1.14185171e+02  8.67298309e+01  1.43e-07 9.09e-13  4.41e-04     0s
  14   1.09661896e+02  9.74232926e+01  8.79e-08 9.09e-13  1.97e-04     1s
  15   1.07408924e+02  9.94027629e+01  5.83e-08 1.82e-12  1.29e-04     1s
  16   1.06196946e+02  1.00621590e+02  4.22e-08 1.82e-12  8.95e-05     1s
  17   1.05047187e+02  1.01262660e+02  2.70e-08 9.09e-13  6.08e-05     1s
  18   1.04291343e+02  1.02124018e+02  1.71e-08 9.09e-13  3.48e-05     1s
  19   1.03817236e+02  1.02435290e+02  1.09e-08 9.09e-13  2.22e-05     1s
  20   1.03375173e+02  1.02683399e+02  5.15e-09 9.09e-13  1.11e-05     1s
  21   1.03141369e+02  1.02812838e+02  2.13e-09 9.09e-13  5.28e-06     1s
  22   1.03085545e+02  1.02866242e+02  1.44e-09 9.09e-13  3.52e-06     1s
  23   1.03013429e+02  1.02933184e+02  5.42e-10 9.09e-13  1.29e-06     1s
  24   1.02974600e+02  1.02969341e+02  1.32e-10 1.36e-12  8.45e-08     1s
  25   1.02972792e+02  1.02972243e+02  1.18e-09 9.09e-13  8.82e-09     1s
  26   1.02972731e+02  1.02972718e+02  4.04e-10 9.09e-13  1.99e-10     1s
  27   1.02972728e+02  1.02972728e+02  1.16e-10 9.09e-13  3.21e-15     1s

Barrier solved model in 27 iterations and 0.63 seconds (0.58 work units)
Optimal objective 1.02972728e+02


Root relaxation: objective 1.029727e+02, 3446 iterations, 0.59 seconds (0.50 work units)

    Nodes    |    Current Node    |     Objective Bounds      |     Work
 Expl Unexpl |  Obj  Depth IntInf | Incumbent    BestBd   Gap | It/Node Time

     0     0  102.97273    0   15          -  102.97273      -     -    1s
H    0     0                     157.5697869  102.97273  34.6%     -    1s
H    0     0                     127.2233979  102.97273  19.1%     -    2s
     0     0  105.07289    0   11  127.22340  105.07289  17.4%     -    2s
     0     0  105.08591    0   11  127.22340  105.08591  17.4%     -    3s
     0     0  105.13874    0   11  127.22340  105.13874  17.4%     -    3s
     0     0  105.13874    0   11  127.22340  105.13874  17.4%     -    3s
     0     0  106.32732    0   10  127.22340  106.32732  16.4%     -    4s
     0     0  106.37466    0   11  127.22340  106.37466  16.4%     -    5s
     0     0  106.37648    0   11  127.22340  106.37648  16.4%     -    5s
     0     0  106.80947    0   10  127.22340  106.80947  16.0%     -    5s
     0     0  106.94177    0   11  127.22340  106.94177  15.9%     -    6s
     0     0  106.94268    0   10  127.22340  106.94268  15.9%     -    6s
     0     0  106.94268    0   10  127.22340  106.94268  15.9%     -    6s
     0     0  107.12175    0    9  127.22340  107.12175  15.8%     -    6s
     0     0  107.12462    0    9  127.22340  107.12462  15.8%     -    7s
     0     0  107.12462    0    9  127.22340  107.12462  15.8%     -    7s
     0     0  107.40950    0    9  127.22340  107.40950  15.6%     -    8s
H    0     0                     117.4561877  107.40950  8.55%     -   14s
     0     2  107.40950    0    9  117.45619  107.40950  8.55%     -   14s
     3     8  114.73705    2    8  117.45619  108.87043  7.31%   876   15s

Cutting planes:
  Gomory: 2
  Implied bound: 121
  MIR: 1237
  RLT: 1
  Relax-and-lift: 3

Explored 74 nodes (34631 simplex iterations) in 17.24 seconds (22.76 work units)
Thread count was 36 (of 36 available processors)

Solution count 3: 117.456 127.223 157.57 

Optimal solution found (tolerance 1.00e-02)
Best objective 1.174561877255e+02, best bound 1.170491369174e+02, gap 0.3466%

Gurobi 9.5.0 (linux64) logging started Wed Nov 15 11:39:36 2023

Set parameter LogFile to value "/lustre1/scratch/348/vsc34888/JointResearch/05.Models/06.Benchmarking/D.Representative_days_based_on_RES_and_Demand/RTS24_mod1_ByStages/openStarNet_RTS24_mod1_ByStages.log"
Set parameter Method to value 2
Set parameter MIPFocus to value 1
Set parameter Presolve to value 2
Set parameter RINS to value 100
Set parameter MIPGap to value 0.01
Set parameter Threads to value 36
Set parameter TimeLimit to value 604800
Set parameter IterationLimit to value 760000000
No parameters matching 'relax_integrality' found
Gurobi Optimizer version 9.5.0 build v9.5.0rc5 (linux64)
Thread count: 36 physical cores, 36 logical processors, using up to 36 threads
Optimize a model with 75244 rows, 47771 columns and 174248 nonzeros
Model fingerprint: 0x52a42ad8
Coefficient statistics:
  Matrix range     [1e-03, 3e+04]
  Objective range  [1e+00, 1e+00]
  Bounds range     [4e-05, 3e+00]
  RHS range        [4e-05, 3e+01]
Presolve removed 57396 rows and 21111 columns
Presolve time: 0.08s
Presolved: 17848 rows, 26854 columns, 66624 nonzeros

Ordering time: 0.00s

Barrier statistics:
 AA' NZ     : 4.592e+04
 Factor NZ  : 1.920e+05 (roughly 16 MB of memory)
 Factor Ops : 2.887e+06 (less than 1 second per iteration)
 Threads    : 36

                  Objective                Residual
Iter       Primal          Dual         Primal    Dual     Compl     Time
   0   1.01353139e+06 -5.89658190e+07  1.74e+01 2.10e+01  2.99e+03     0s
   1   1.42907545e+05 -1.08579882e+07  1.95e+00 6.25e-13  3.61e+02     0s
   2   4.12405307e+04 -1.64915752e+06  2.67e-01 6.80e-13  4.45e+01     0s
   3   1.97782862e+04 -2.51945829e+05  1.39e-02 5.06e-13  6.02e+00     0s
   4   5.42949775e+03 -6.91602597e+04  7.87e-04 3.24e-13  1.63e+00     0s
   5   2.42964487e+03 -1.85978146e+04  2.28e-04 2.15e-13  4.58e-01     0s
   6   1.00468401e+03 -4.45632518e+03  6.70e-05 2.27e-13  1.19e-01     0s
   7   5.14776730e+02 -1.58948895e+03  1.97e-05 2.27e-13  4.58e-02     0s
   8   3.50950578e+02 -9.00709899e+02  9.15e-06 1.14e-13  2.73e-02     0s
   9   2.35917028e+02 -1.93613733e+02  3.78e-06 2.27e-13  9.35e-03     0s
  10   1.62889522e+02 -4.81221170e+01  1.06e-06 1.14e-13  4.60e-03     0s
  11   1.34095269e+02  5.60608884e+01  2.96e-07 1.14e-13  1.70e-03     0s
  12   1.25845532e+02  9.49202572e+01  1.39e-07 1.14e-13  6.74e-04     0s
  13   1.21010847e+02  1.08677629e+02  5.63e-08 1.14e-13  2.69e-04     0s
  14   1.19068795e+02  1.13560000e+02  2.44e-08 1.14e-13  1.20e-04     0s
  15   1.18014896e+02  1.16480261e+02  8.02e-09 1.14e-13  3.34e-05     0s
  16   1.17534596e+02  1.17343149e+02  1.05e-09 2.27e-13  4.17e-06     0s
  17   1.17468302e+02  1.17430378e+02  1.56e-10 1.14e-13  8.26e-07     0s
  18   1.17457269e+02  1.17454832e+02  1.20e-10 2.27e-13  5.31e-08     0s
  19   1.17456190e+02  1.17456182e+02  6.00e-11 1.71e-13  1.58e-10     0s
  20   1.17456188e+02  1.17456188e+02  1.06e-10 1.14e-13  1.58e-13     0s

Barrier solved model in 20 iterations and 0.28 seconds (0.26 work units)
Optimal objective 1.17456188e+02

Crossover log...

    2407 DPushes remaining with DInf 0.0000000e+00                 0s
       0 DPushes remaining with DInf 0.0000000e+00                 0s

     773 PPushes remaining with PInf 0.0000000e+00                 0s
       0 PPushes remaining with PInf 0.0000000e+00                 0s

  Push phase complete: Pinf 0.0000000e+00, Dinf 5.7395904e-13      0s

Iteration    Objective       Primal Inf.    Dual Inf.      Time
     833    1.1745619e+02   0.000000e+00   0.000000e+00      0s

Use crossover to convert LP symmetric solution to basic solution...
Crossover log...

       0 DPushes remaining with DInf 0.0000000e+00                 0s

     481 PPushes remaining with PInf 0.0000000e+00                 0s
       0 PPushes remaining with PInf 0.0000000e+00                 0s

  Push phase complete: Pinf 0.0000000e+00, Dinf 5.1141243e-13      0s

Iteration    Objective       Primal Inf.    Dual Inf.      Time
    1355    1.1745619e+02   0.000000e+00   0.000000e+00      0s

Solved in 1355 iterations and 0.48 seconds (0.38 work units)
Optimal objective  1.174561877e+02

Gurobi 9.5.0 (linux64) logging started Wed Nov 15 17:06:13 2023

Set parameter LogFile to value "/lustre1/scratch/348/vsc34888/JointResearch/05.Models/06.Benchmarking/D.Representative_days_based_on_RES_and_Demand/RTS24_mod1_ByStages/openStarNet_RTS24_mod1_ByStages.log"
Set parameter Method to value 2
Set parameter MIPFocus to value 1
Set parameter Presolve to value 2
Set parameter RINS to value 100
Set parameter MIPGap to value 0.01
Set parameter Threads to value 36
Set parameter TimeLimit to value 604800
Set parameter IterationLimit to value 760000000
Gurobi Optimizer version 9.5.0 build v9.5.0rc5 (linux64)
Thread count: 36 physical cores, 36 logical processors, using up to 36 threads
Optimize a model with 93092 rows, 52272 columns and 249171 nonzeros
Model fingerprint: 0xab6feede
Variable types: 52233 continuous, 39 integer (39 binary)
Coefficient statistics:
  Matrix range     [1e-03, 3e+04]
  Objective range  [1e+00, 1e+00]
  Bounds range     [4e-05, 3e+00]
  RHS range        [4e-05, 3e+00]
Presolve removed 48860 rows and 23633 columns
Presolve time: 0.34s
Presolved: 44232 rows, 28639 columns, 154118 nonzeros
Variable types: 28600 continuous, 39 integer (39 binary)
Root relaxation presolved: 44232 rows, 28639 columns, 154118 nonzeros

Root barrier log...

Ordering time: 0.01s

Barrier statistics:
 Dense cols : 39
 AA' NZ     : 3.273e+05
 Factor NZ  : 1.121e+06 (roughly 40 MB of memory)
 Factor Ops : 3.689e+07 (less than 1 second per iteration)
 Threads    : 35

                  Objective                Residual
Iter       Primal          Dual         Primal    Dual     Compl     Time
   0   6.54250167e+05 -5.72267886e+07  4.52e+00 9.26e+01  1.84e+03     1s
   1   7.61620228e+04 -1.54812690e+07  3.72e-01 4.09e-09  2.30e+02     1s
   2   3.07158205e+04 -2.40912594e+06  3.53e-02 2.25e-09  2.87e+01     1s
   3   1.50942737e+04 -3.02818929e+05  1.23e-03 3.45e-10  3.53e+00     1s
   4   3.67699133e+03 -5.10512131e+04  9.60e-05 4.79e-11  6.06e-01     1s
   5   1.41393896e+03 -1.17203282e+04  3.07e-05 9.76e-12  1.46e-01     1s
   6   6.19592554e+02 -5.22986616e+03  7.51e-06 4.12e-12  6.48e-02     1s
   7   3.91287025e+02 -1.92936325e+03  2.81e-06 1.46e-12  2.57e-02     1s
   8   2.69763542e+02 -8.03127407e+02  1.19e-06 7.11e-13  1.19e-02     1s
   9   2.05031723e+02 -3.18789349e+02  5.66e-07 4.55e-13  5.80e-03     1s
  10   1.64506231e+02 -1.10666207e+02  2.84e-07 4.55e-13  3.05e-03     1s
  11   1.32142226e+02  3.84129312e+01  1.14e-07 2.27e-13  1.04e-03     1s
  12   1.14734422e+02  6.44268388e+01  4.43e-08 4.55e-13  5.57e-04     1s
  13   1.12774798e+02  8.37527608e+01  3.66e-08 2.27e-13  3.22e-04     1s
  14   1.09678000e+02  8.95367813e+01  2.48e-08 2.27e-13  2.23e-04     1s
  15   1.07656543e+02  9.12626151e+01  1.69e-08 2.27e-13  1.82e-04     1s
  16   1.06473294e+02  9.59744330e+01  1.27e-08 4.55e-13  1.16e-04     1s
  17   1.05273837e+02  9.88162886e+01  8.20e-09 4.55e-13  7.15e-05     1s
  18   1.04421038e+02  9.98992358e+01  5.05e-09 2.27e-13  5.01e-05     1s
  19   1.04003752e+02  1.00369514e+02  3.59e-09 2.27e-13  4.03e-05     1s
  20   1.03677463e+02  1.00962911e+02  2.41e-09 2.27e-13  3.01e-05     1s
  21   1.03517698e+02  1.01358285e+02  1.85e-09 2.27e-13  2.39e-05     1s
  22   1.03256454e+02  1.02219447e+02  9.42e-10 9.09e-13  1.15e-05     1s
  23   1.03128208e+02  1.02546353e+02  5.03e-10 4.55e-13  6.45e-06     1s
  24   1.03048096e+02  1.02676631e+02  2.41e-10 4.55e-13  4.12e-06     1s
  25   1.03037228e+02  1.02693004e+02  2.06e-10 2.27e-13  3.81e-06     1s
  26   1.03013280e+02  1.02880303e+02  1.31e-10 4.55e-13  1.47e-06     1s
  27   1.02997431e+02  1.02904573e+02  7.89e-11 2.27e-13  1.03e-06     1s
  28   1.02976042e+02  1.02964714e+02  1.06e-10 4.55e-13  1.26e-07     1s
  29   1.02973088e+02  1.02972450e+02  3.77e-10 4.55e-13  7.06e-09     1s
  30   1.02972731e+02  1.02972719e+02  7.89e-10 4.55e-13  1.40e-10     1s
  31   1.02972728e+02  1.02972728e+02  3.38e-09 2.27e-13  6.12e-14     1s

Barrier solved model in 31 iterations and 1.47 seconds (1.03 work units)
Optimal objective 1.02972728e+02


Root relaxation: objective 1.029727e+02, 3865 iterations, 1.34 seconds (0.97 work units)

    Nodes    |    Current Node    |     Objective Bounds      |     Work
 Expl Unexpl |  Obj  Depth IntInf | Incumbent    BestBd   Gap | It/Node Time

     0     0  102.97273    0   15          -  102.97273      -     -    2s
H    0     0                     157.5697869  102.97273  34.6%     -    3s
H    0     0                     127.2233979  102.97273  19.1%     -    3s
     0     0  105.13544    0   11  127.22340  105.13544  17.4%     -    4s
     0     0  105.14781    0   11  127.22340  105.14781  17.4%     -    5s
     0     0  105.14781    0   11  127.22340  105.14781  17.4%     -    6s
     0     0  105.14781    0   10  127.22340  105.14781  17.4%     -    6s
     0     0  106.43327    0   11  127.22340  106.43327  16.3%     -    7s
     0     0  106.49903    0   11  127.22340  106.49903  16.3%     -    8s
     0     0  106.49983    0   11  127.22340  106.49983  16.3%     -    8s
     0     0  106.81265    0   10  127.22340  106.81265  16.0%     -    9s
     0     0  106.83546    0   10  127.22340  106.83546  16.0%     -    9s
     0     0  106.83546    0   10  127.22340  106.83546  16.0%     -    9s
     0     0  107.17749    0    9  127.22340  107.17749  15.8%     -   10s
     0     0  107.17749    0    9  127.22340  107.17749  15.8%     -   11s
     0     0  107.17749    0    9  127.22340  107.17749  15.8%     -   11s
     0     0  107.17749    0    9  127.22340  107.17749  15.8%     -   12s
H    0     0                     117.4561877  107.17749  8.75%     -   18s
     0     2  107.17749    0    9  117.45619  107.17749  8.75%     -   18s
     7    10     cutoff    3       117.45619  109.22274  7.01%  1153   20s
   116    14  114.21214   10    7  117.45619  114.05563  2.90%   472   25s

Cutting planes:
  Gomory: 2
  Implied bound: 118
  MIR: 1392

Explored 164 nodes (74641 simplex iterations) in 26.23 seconds (34.63 work units)
Thread count was 36 (of 36 available processors)

Solution count 3: 117.456 127.223 157.57 

Optimal solution found (tolerance 1.00e-02)
Best objective 1.174561877255e+02, best bound 1.163816595980e+02, gap 0.9148%

Gurobi 9.5.0 (linux64) logging started Wed Nov 15 17:07:04 2023

Set parameter LogFile to value "/lustre1/scratch/348/vsc34888/JointResearch/05.Models/06.Benchmarking/D.Representative_days_based_on_RES_and_Demand/RTS24_mod1_ByStages/openStarNet_RTS24_mod1_ByStages.log"
Set parameter Method to value 2
Set parameter MIPFocus to value 1
Set parameter Presolve to value 2
Set parameter RINS to value 100
Set parameter MIPGap to value 0.01
Set parameter Threads to value 36
Set parameter TimeLimit to value 604800
Set parameter IterationLimit to value 760000000
No parameters matching 'relax_integrality' found
Gurobi Optimizer version 9.5.0 build v9.5.0rc5 (linux64)
Thread count: 36 physical cores, 36 logical processors, using up to 36 threads
Optimize a model with 93092 rows, 52233 columns and 218868 nonzeros
Model fingerprint: 0xe19c0e94
Coefficient statistics:
  Matrix range     [1e-03, 3e+04]
  Objective range  [1e+00, 1e+00]
  Bounds range     [4e-05, 3e+00]
  RHS range        [4e-05, 3e+01]
Presolve removed 75050 rows and 25573 columns
Presolve time: 0.10s
Presolved: 18042 rows, 27048 columns, 67206 nonzeros

Ordering time: 0.00s

Barrier statistics:
 AA' NZ     : 4.738e+04
 Factor NZ  : 1.972e+05 (roughly 16 MB of memory)
 Factor Ops : 3.001e+06 (less than 1 second per iteration)
 Threads    : 36

                  Objective                Residual
Iter       Primal          Dual         Primal    Dual     Compl     Time
   0   1.13942630e+06 -8.47943183e+07  1.01e+01 1.99e+01  4.19e+03     0s
   1   1.51454904e+05 -1.33696961e+07  1.13e+00 9.52e-13  4.59e+02     0s
   2   4.20984231e+04 -1.99932089e+06  1.38e-01 8.24e-13  5.35e+01     0s
   3   1.95628705e+04 -2.90470856e+05  9.44e-03 5.37e-13  6.85e+00     0s
   4   5.79688587e+03 -5.49550898e+04  6.51e-04 4.13e-13  1.31e+00     0s
   5   2.40492461e+03 -1.36776349e+04  2.15e-04 4.38e-13  3.47e-01     0s
   6   1.00601592e+03 -3.87196267e+03  6.71e-05 2.27e-13  1.05e-01     0s
   7   4.83752529e+02 -1.10142355e+03  1.85e-05 2.27e-13  3.42e-02     0s
   8   3.21482192e+02 -4.85011309e+02  9.02e-06 1.71e-13  1.74e-02     0s
   9   2.16745593e+02 -1.38453379e+02  3.79e-06 1.71e-13  7.66e-03     0s
  10   1.50506691e+02  4.83457106e+01  1.03e-06 2.27e-13  2.20e-03     0s
  11   1.27852279e+02  9.81334797e+01  2.71e-07 1.71e-13  6.41e-04     0s
  12   1.21617703e+02  1.10521844e+02  1.06e-07 2.27e-13  2.39e-04     0s
  13   1.19270524e+02  1.15193631e+02  4.43e-08 1.14e-13  8.79e-05     0s
  14   1.18031900e+02  1.16873005e+02  1.35e-08 2.27e-13  2.50e-05     0s
  15   1.17592854e+02  1.17311697e+02  3.13e-09 2.27e-13  6.06e-06     0s
  16   1.17465255e+02  1.17439397e+02  2.59e-10 2.27e-13  5.58e-07     0s
  17   1.17457132e+02  1.17454248e+02  1.84e-10 2.27e-13  6.22e-08     0s
  18   1.17456189e+02  1.17456184e+02  1.21e-10 2.27e-13  9.79e-11     0s
  19   1.17456188e+02  1.17456188e+02  3.50e-11 2.27e-13  9.79e-14     0s

Barrier solved model in 19 iterations and 0.31 seconds (0.26 work units)
Optimal objective 1.17456188e+02

Crossover log...

    2411 DPushes remaining with DInf 0.0000000e+00                 0s
       0 DPushes remaining with DInf 0.0000000e+00                 0s

     774 PPushes remaining with PInf 0.0000000e+00                 0s
       0 PPushes remaining with PInf 0.0000000e+00                 0s

  Push phase complete: Pinf 0.0000000e+00, Dinf 4.4376886e-13      0s

Iteration    Objective       Primal Inf.    Dual Inf.      Time
     837    1.1745619e+02   0.000000e+00   0.000000e+00      0s

Use crossover to convert LP symmetric solution to basic solution...
Crossover log...

       0 DPushes remaining with DInf 0.0000000e+00                 0s

     485 PPushes remaining with PInf 0.0000000e+00                 0s
       0 PPushes remaining with PInf 0.0000000e+00                 0s

  Push phase complete: Pinf 0.0000000e+00, Dinf 4.5309935e-13      0s

Iteration    Objective       Primal Inf.    Dual Inf.      Time
    1365    1.1745619e+02   0.000000e+00   0.000000e+00      1s

Solved in 1365 iterations and 0.55 seconds (0.40 work units)
Optimal objective  1.174561877e+02

Gurobi 9.5.0 (linux64) logging started Thu Nov 16 15:25:47 2023

Set parameter LogFile to value "/lustre1/scratch/348/vsc34888/JointResearch/05.Models/06.Benchmarking/D.Representative_days_based_on_RES_and_Demand/RTS24_mod1_ByStages/openStarNet_RTS24_mod1_ByStages.log"
Set parameter Method to value 2
Set parameter MIPFocus to value 1
Set parameter Presolve to value 2
Set parameter RINS to value 100
Set parameter MIPGap to value 0.01
Set parameter Threads to value 36
Set parameter TimeLimit to value 604800
Set parameter IterationLimit to value 760000000
Gurobi Optimizer version 9.5.0 build v9.5.0rc5 (linux64)
Thread count: 36 physical cores, 36 logical processors, using up to 36 threads
Optimize a model with 114811 rows, 57535 columns and 327945 nonzeros
Model fingerprint: 0xa200decf
Variable types: 57465 continuous, 70 integer (70 binary)
Coefficient statistics:
  Matrix range     [1e-03, 3e+04]
  Objective range  [1e+00, 1e+00]
  Bounds range     [4e-05, 3e+00]
  RHS range        [4e-05, 3e+00]
Presolve removed 46523 rows and 22851 columns
Presolve time: 0.49s
Presolved: 68288 rows, 34684 columns, 238314 nonzeros
Variable types: 34614 continuous, 70 integer (70 binary)
Root relaxation presolved: 68288 rows, 34684 columns, 238314 nonzeros

Root barrier log...

Ordering time: 0.04s

Barrier statistics:
 Dense cols : 70
 AA' NZ     : 6.990e+05
 Factor NZ  : 2.227e+06 (roughly 60 MB of memory)
 Factor Ops : 1.212e+08 (less than 1 second per iteration)
 Threads    : 35

                  Objective                Residual
Iter       Primal          Dual         Primal    Dual     Compl     Time
   0   5.55771520e+05 -3.77945320e+07  9.66e+00 5.97e+01  9.77e+02     1s
   1   6.68090326e+04 -1.28179632e+07  7.27e-01 2.45e-09  1.29e+02     1s
   2   2.58907920e+04 -1.79722024e+06  3.36e-02 9.82e-10  1.48e+01     1s
   3   1.04052709e+04 -1.37640467e+05  1.29e-03 5.52e-11  1.17e+00     1s
   4   1.61256785e+03 -3.06501695e+04  6.81e-05 1.04e-11  2.55e-01     1s
   5   7.11337522e+02 -8.78502831e+03  1.39e-05 2.89e-12  7.51e-02     1s
   6   4.93513630e+02 -2.89442500e+03  4.94e-06 9.95e-13  2.68e-02     1s
   7   3.76779577e+02 -1.22048629e+03  2.56e-06 4.90e-13  1.26e-02     1s
   8   2.58444022e+02 -5.29043013e+02  9.13e-07 3.27e-13  6.23e-03     1s
   9   1.94184780e+02 -1.68911375e+02  4.28e-07 2.27e-13  2.87e-03     1s
  10   1.63424781e+02 -2.03318281e+01  2.29e-07 2.27e-13  1.45e-03     1s
  11   1.49726306e+02  2.38291913e+01  1.56e-07 2.27e-13  9.96e-04     1s
  12   1.35743202e+02  7.02944399e+01  8.64e-08 2.27e-13  5.18e-04     1s
  13   1.30698838e+02  8.14161450e+01  6.20e-08 2.27e-13  3.90e-04     1s
  14   1.26987274e+02  9.35506828e+01  4.45e-08 2.27e-13  2.65e-04     2s
  15   1.24574366e+02  1.01848232e+02  3.29e-08 2.27e-13  1.80e-04     2s
  16   1.22212908e+02  1.06857860e+02  2.18e-08 2.27e-13  1.21e-04     2s
  17   1.20924181e+02  1.09633685e+02  1.55e-08 2.27e-13  8.93e-05     2s
  18   1.20377017e+02  1.12017388e+02  1.31e-08 2.27e-13  6.61e-05     2s
  19   1.19437650e+02  1.13787811e+02  8.67e-09 2.27e-13  4.47e-05     2s
  20   1.18881435e+02  1.14999924e+02  6.11e-09 2.27e-13  3.07e-05     2s
  21   1.18309672e+02  1.16028367e+02  3.46e-09 2.27e-13  1.80e-05     2s
  22   1.17886320e+02  1.16437448e+02  1.58e-09 2.27e-13  1.15e-05     2s
  23   1.17725164e+02  1.16670124e+02  8.78e-10 2.27e-13  8.35e-06     2s
  24   1.17647783e+02  1.17080535e+02  5.54e-10 2.27e-13  4.49e-06     2s
  25   1.17608042e+02  1.17131606e+02  3.89e-10 2.27e-13  3.77e-06     2s
  26   1.17582325e+02  1.17350783e+02  2.88e-10 2.27e-13  1.83e-06     2s
  27   1.17577316e+02  1.17394053e+02  2.68e-10 2.27e-13  1.45e-06     2s
  28   1.17562456e+02  1.17412734e+02  2.08e-10 2.27e-13  1.18e-06     2s
  29   1.17519230e+02  1.17447822e+02  2.16e-10 2.27e-13  5.65e-07     2s
  30   1.17512926e+02  1.17464024e+02  1.07e-10 5.76e-13  3.87e-07     2s
  31   1.17512412e+02  1.17481569e+02  8.70e-11 3.82e-13  2.44e-07     2s
  32   1.17510384e+02  1.17483485e+02  7.67e-11 3.00e-13  2.13e-07     2s
  33   1.17510226e+02  1.17486460e+02  7.67e-11 3.32e-13  1.88e-07     2s
  34   1.17510144e+02  1.17490373e+02  8.83e-11 2.68e-13  1.56e-07     2s
  35   1.17509166e+02  1.17496413e+02  1.23e-10 2.27e-13  1.01e-07     2s
  36   1.17508330e+02  1.17506980e+02  3.53e-10 3.41e-13  1.07e-08     2s
  37   1.17507662e+02  1.17507327e+02  1.87e-10 2.27e-13  2.65e-09     2s
  38   1.17507347e+02  1.17507335e+02  1.22e-08 2.27e-13  9.41e-11     2s
  39   1.17507343e+02  1.17507338e+02  1.25e-08 4.09e-13  4.27e-11     2s
  40   1.17507342e+02  1.17507338e+02  5.43e-07 2.27e-13  3.08e-11     2s
  41   1.17507341e+02  1.17507338e+02  4.13e-07 2.27e-13  2.35e-11     2s
  42   1.17507339e+02  1.17507338e+02  4.74e-07 6.84e-13  7.56e-12     3s

Barrier solved model in 42 iterations and 2.52 seconds (2.14 work units)
Optimal objective 1.17507339e+02


Root relaxation: objective 1.175073e+02, 5697 iterations, 2.29 seconds (2.13 work units)

    Nodes    |    Current Node    |     Objective Bounds      |     Work
 Expl Unexpl |  Obj  Depth IntInf | Incumbent    BestBd   Gap | It/Node Time

     0     0  117.50734    0   21          -  117.50734      -     -    4s
H    0     0                     427.4245236  117.50734  72.5%     -    5s
H    0     0                     200.8948477  117.50734  41.5%     -    7s
H    0     0                     189.6772380  119.71297  36.9%     -   13s
     0     0  119.71297    0   21  189.67724  119.71297  36.9%     -   13s
H    0     0                     182.2895703  119.71297  34.3%     -   14s
     0     0  119.73185    0   22  182.28957  119.73185  34.3%     -   15s
     0     0  119.73185    0   22  182.28957  119.73185  34.3%     -   15s
     0     0  120.44766    0   25  182.28957  120.44766  33.9%     -   18s
     0     0  120.48680    0   26  182.28957  120.48680  33.9%     -   20s
     0     0  120.49487    0   26  182.28957  120.49487  33.9%     -   21s
     0     0  120.49510    0   25  182.28957  120.49510  33.9%     -   21s
     0     0  120.74113    0   23  182.28957  120.74113  33.8%     -   24s
     0     0  120.77979    0   23  182.28957  120.77979  33.7%     -   26s
     0     0  120.79799    0   23  182.28957  120.79799  33.7%     -   27s
     0     0  120.79806    0   23  182.28957  120.79806  33.7%     -   27s
     0     0  120.88185    0   24  182.28957  120.88185  33.7%     -   29s
     0     0  120.90320    0   22  182.28957  120.90320  33.7%     -   30s
     0     0  120.90535    0   22  182.28957  120.90535  33.7%     -   31s
     0     0  120.90563    0   23  182.28957  120.90563  33.7%     -   31s
     0     0  121.12384    0   23  182.28957  121.12384  33.6%     -   34s
H    0     0                     170.8725114  121.12384  29.1%     -  386s
     0     2  121.12384    0   23  170.87251  121.12384  29.1%     -  388s
     1     4  121.52413    1   24  170.87251  121.12430  29.1%  4204  390s
     7    16  125.75900    3   20  170.87251  121.72659  28.8%  5498  399s
H    9    16                     170.1266053  121.72659  28.4%  4500  399s
H   14    16                     153.9752309  124.21690  19.3%  5037  399s
    15    32  125.97578    4   17  153.97523  124.21690  19.3%  5016  402s
    31    64  126.07183    5   16  153.97523  124.57198  19.1%  4256  413s
H   63   100                     134.8603361  124.62994  7.59%  7348  659s
    99    96     cutoff    7       134.86034  124.62994  7.59%  5567  772s
   171    76  129.06634    9   18  134.86034  124.62994  7.59%  3769  777s
   207    95  130.01004   10   19  134.86034  124.62994  7.59%  3340  781s
   256   103  130.01843   11   18  134.86034  124.62994  7.59%  3283  801s
   298   119  130.31635   12   16  134.86034  124.62994  7.59%  3130  805s
   354   114     cutoff   13       134.86034  124.62994  7.59%  2931  822s
   402   113     cutoff   16       134.86034  124.62994  7.59%  2798  826s
   481   108  129.58419   16   15  134.86034  124.62994  7.59%  2591  856s
   542   103  131.18467   17   15  134.86034  124.62994  7.59%  2436  861s
   715   107  134.78016   18   13  134.86034  124.62994  7.59%  2175  867s
   794    81     cutoff   19       134.86034  124.88496  7.40%  2115  871s
   904    74     cutoff    8       134.86034  125.40803  7.01%  1999  877s
   989    58  134.17232    9   20  134.86034  125.40803  7.01%  1949  880s
  1079    47     cutoff   10       134.86034  126.55060  6.16%  1876  887s
  1124    24  130.40070    7   10  134.86034  126.59837  6.13%  1849  891s
  1197     9  131.95554    8    9  134.86034  129.07308  4.29%  1800  897s
  1244     8  132.13706    8   18  134.86034  130.53741  3.21%  1776  900s
  1265     0     cutoff   11       134.86034  134.29827  0.42%  1773  906s

Cutting planes:
  Implied bound: 5
  MIR: 3153

Explored 1273 nodes (2291755 simplex iterations) in 906.41 seconds (1639.80 work units)
Thread count was 36 (of 36 available processors)

Solution count 8: 134.86 153.975 170.127 ... 427.425

Optimal solution found (tolerance 1.00e-02)
Best objective 1.348603360788e+02, best bound 1.348603360788e+02, gap 0.0000%

Gurobi 9.5.0 (linux64) logging started Thu Nov 16 15:41:22 2023

Set parameter LogFile to value "/lustre1/scratch/348/vsc34888/JointResearch/05.Models/06.Benchmarking/D.Representative_days_based_on_RES_and_Demand/RTS24_mod1_ByStages/openStarNet_RTS24_mod1_ByStages.log"
Set parameter Method to value 2
Set parameter MIPFocus to value 1
Set parameter Presolve to value 2
Set parameter RINS to value 100
Set parameter MIPGap to value 0.01
Set parameter Threads to value 36
Set parameter TimeLimit to value 604800
Set parameter IterationLimit to value 760000000
No parameters matching 'relax_integrality' found
Gurobi Optimizer version 9.5.0 build v9.5.0rc5 (linux64)
Thread count: 36 physical cores, 36 logical processors, using up to 36 threads
Optimize a model with 114811 rows, 57465 columns and 273555 nonzeros
Model fingerprint: 0x5f427eee
Coefficient statistics:
  Matrix range     [1e-03, 3e+04]
  Objective range  [1e+00, 1e+00]
  Bounds range     [4e-05, 3e+00]
  RHS range        [4e-05, 4e+01]
Presolve removed 97813 rows and 31849 columns
Presolve time: 0.10s
Presolved: 16998 rows, 26004 columns, 61700 nonzeros

Ordering time: 0.00s

Barrier statistics:
 AA' NZ     : 4.610e+04
 Factor NZ  : 2.067e+05 (roughly 17 MB of memory)
 Factor Ops : 3.236e+06 (less than 1 second per iteration)
 Threads    : 36

                  Objective                Residual
Iter       Primal          Dual         Primal    Dual     Compl     Time
   0   7.84028701e+05 -3.65086111e+07  9.87e+00 3.71e+01  1.72e+03     0s
   1   1.09635024e+05 -5.86777185e+06  1.02e+00 3.99e-13  1.84e+02     0s
   2   3.24502895e+04 -8.28511547e+05  8.91e-02 4.49e-13  2.03e+01     0s
   3   1.18832581e+04 -8.48750158e+04  3.63e-03 2.49e-13  2.07e+00     0s
   4   2.37395175e+03 -1.37976613e+04  3.86e-04 2.67e-13  3.45e-01     0s
   5   1.02388913e+03 -4.20720535e+03  1.26e-04 1.82e-13  1.11e-01     0s
   6   4.98202181e+02 -1.20124406e+03  3.62e-05 1.14e-13  3.62e-02     0s
   7   3.41618834e+02 -5.16235349e+02  1.81e-05 1.14e-13  1.83e-02     0s
   8   2.47485023e+02 -1.63061705e+02  8.77e-06 1.14e-13  8.74e-03     0s
   9   1.85863500e+02  1.62277519e+01  3.47e-06 1.14e-13  3.61e-03     0s
  10   1.52746535e+02  9.64587339e+01  1.04e-06 1.14e-13  1.20e-03     0s
  11   1.40688635e+02  1.26664762e+02  3.11e-07 1.14e-13  2.99e-04     0s
  12   1.37628846e+02  1.31839123e+02  1.45e-07 1.14e-13  1.23e-04     0s
  13   1.35673742e+02  1.34106824e+02  4.11e-08 1.14e-13  3.34e-05     0s
  14   1.35087794e+02  1.34645686e+02  1.11e-08 1.14e-13  9.41e-06     0s
  15   1.34936880e+02  1.34809249e+02  3.64e-09 1.14e-13  2.72e-06     0s
  16   1.34864668e+02  1.34856058e+02  1.58e-10 1.14e-13  1.83e-07     0s
  17   1.34860435e+02  1.34860046e+02  2.22e-10 1.14e-13  8.28e-09     0s
  18   1.34860336e+02  1.34860336e+02  9.52e-11 1.14e-13  8.30e-12     0s
  19   1.34860336e+02  1.34860336e+02  5.54e-11 1.14e-13  8.30e-15     0s

Barrier solved model in 19 iterations and 0.30 seconds (0.27 work units)
Optimal objective 1.34860336e+02

Crossover log...

    2365 DPushes remaining with DInf 0.0000000e+00                 0s
       0 DPushes remaining with DInf 0.0000000e+00                 0s

     803 PPushes remaining with PInf 0.0000000e+00                 0s
       0 PPushes remaining with PInf 0.0000000e+00                 0s

  Push phase complete: Pinf 0.0000000e+00, Dinf 5.9736624e-13      0s

Iteration    Objective       Primal Inf.    Dual Inf.      Time
     852    1.3486034e+02   0.000000e+00   0.000000e+00      0s

Use crossover to convert LP symmetric solution to basic solution...
Crossover log...

     500 PPushes remaining with PInf 0.0000000e+00                 0s
       0 PPushes remaining with PInf 0.0000000e+00                 0s

  Push phase complete: Pinf 0.0000000e+00, Dinf 4.7704879e-13      0s

Iteration    Objective       Primal Inf.    Dual Inf.      Time
    1355    1.3486034e+02   0.000000e+00   0.000000e+00      0s

Solved in 1355 iterations and 0.50 seconds (0.39 work units)
Optimal objective  1.348603361e+02
